Interlayer distance 4.0
1.0
       24.3043060303         0.0000000000         0.0000000000
      -12.1521539688        21.0481480954         0.0000000000
        0.0000000000         0.0000000000        25.3762836456
   Ti   Br   Cr    S
   49   98   64  128
Cartesian
     0.000000000         0.000000000         9.191164947
     3.472043874         0.000000000         9.191164947
     6.944087748         0.000000000         9.191164947
    10.416131259         0.000000000         9.191164947
    13.888175495         0.000000000         9.191164947
    17.360219007         0.000000000         9.191164947
    20.832262519         0.000000000         9.191164947
    -1.736022073         3.006878434         9.191164947
     1.736021801         3.006878434         9.191164947
     5.208065674         3.006878434         9.191164947
     8.680109186         3.006878434         9.191164947
    12.152153422         3.006878434         9.191164947
    15.624196934         3.006878434         9.191164947
    19.096240445         3.006878434         9.191164947
    -3.472044146         6.013756868         9.191164947
    -0.000000272         6.013756868         9.191164947
     3.472043601         6.013756868         9.191164947
     6.944087113         6.013756868         9.191164947
    10.416131349         6.013756868         9.191164947
    13.888174861         6.013756868         9.191164947
    17.360218372         6.013756868         9.191164947
    -5.208066038         9.020634988         9.191164947
    -1.736022165         9.020634988         9.191164947
     1.736021709         9.020634988         9.191164947
     5.208065221         9.020634988         9.191164947
     8.680109457         9.020634988         9.191164947
    12.152152969         9.020634988         9.191164947
    15.624196480         9.020634988         9.191164947
    -6.944088293        12.027513735         9.191164947
    -3.472044419        12.027513735         9.191164947
    -0.000000545        12.027513735         9.191164947
     3.472042967        12.027513735         9.191164947
     6.944087203        12.027513735         9.191164947
    10.416130714        12.027513735         9.191164947
    13.888174226        12.027513735         9.191164947
    -8.680110185        15.034391855         9.191164947
    -5.208066311        15.034391855         9.191164947
    -1.736022437        15.034391855         9.191164947
     1.736021075        15.034391855         9.191164947
     5.208065311        15.034391855         9.191164947
     8.680108822        15.034391855         9.191164947
    12.152152334        15.034391855         9.191164947
   -10.416132077        18.041269975         9.191164947
    -6.944088203        18.041269975         9.191164947
    -3.472044329        18.041269975         9.191164947
    -0.000000817        18.041269975         9.191164947
     3.472043419        18.041269975         9.191164947
     6.944086930        18.041269975         9.191164947
    10.416130442        18.041269975         9.191164947
    -0.000001811         2.004586511        10.882330222
     3.472042063         2.004586511        10.882330222
     6.944085574         2.004586511        10.882330222
    10.416129086         2.004586511        10.882330222
    13.888173322         2.004586511        10.882330222
    17.360216834         2.004586511        10.882330222
    20.832260345         2.004586511        10.882330222
    -1.736023794         5.011464788        10.882330222
     1.736020080         5.011464788        10.882330222
     5.208063592         5.011464788        10.882330222
     8.680107103         5.011464788        10.882330222
    12.152151339         5.011464788        10.882330222
    15.624194851         5.011464788        10.882330222
    19.096238363         5.011464788        10.882330222
    -3.472045686         8.018342908        10.882330222
    -0.000001812         8.018342908        10.882330222
     3.472041700         8.018342908        10.882330222
     6.944085211         8.018342908        10.882330222
    10.416129447         8.018342908        10.882330222
    13.888172959         8.018342908        10.882330222
    17.360216471         8.018342908        10.882330222
    -5.208067578        11.025221028        10.882330222
    -1.736023704        11.025221028        10.882330222
     1.736019808        11.025221028        10.882330222
     5.208063319        11.025221028        10.882330222
     8.680107555        11.025221028        10.882330222
    12.152151067        11.025221028        10.882330222
    15.624194579        11.025221028        10.882330222
    -6.944089470        14.032099148        10.882330222
    -3.472045596        14.032099148        10.882330222
    -0.000002084        14.032099148        10.882330222
     3.472041427        14.032099148        10.882330222
     6.944085663        14.032099148        10.882330222
    10.416129175        14.032099148        10.882330222
    13.888172687        14.032099148        10.882330222
    -8.680112086        17.038978523        10.882330222
    -5.208068212        17.038978523        10.882330222
    -1.736024701        17.038978523        10.882330222
     1.736018811        17.038978523        10.882330222
     5.208063047        17.038978523        10.882330222
     8.680106558        17.038978523        10.882330222
    12.152150070        17.038978523        10.882330222
   -10.416133978        20.045856643        10.882330222
    -6.944090105        20.045856643        10.882330222
    -3.472046593        20.045856643        10.882330222
    -0.000003081        20.045856643        10.882330222
     3.472041155        20.045856643        10.882330222
     6.944084666        20.045856643        10.882330222
    10.416128178        20.045856643        10.882330222
    -0.000001811         2.004586511         7.499999672
     3.472042063         2.004586511         7.499999672
     6.944085574         2.004586511         7.499999672
    10.416129086         2.004586511         7.499999672
    13.888173322         2.004586511         7.499999672
    17.360216834         2.004586511         7.499999672
    20.832260345         2.004586511         7.499999672
    -1.736023794         5.011464788         7.499999672
     1.736020080         5.011464788         7.499999672
     5.208063592         5.011464788         7.499999672
     8.680107103         5.011464788         7.499999672
    12.152151339         5.011464788         7.499999672
    15.624194851         5.011464788         7.499999672
    19.096238363         5.011464788         7.499999672
    -3.472045686         8.018342908         7.499999672
    -0.000001812         8.018342908         7.499999672
     3.472041700         8.018342908         7.499999672
     6.944085211         8.018342908         7.499999672
    10.416129447         8.018342908         7.499999672
    13.888172959         8.018342908         7.499999672
    17.360216471         8.018342908         7.499999672
    -5.208067578        11.025221028         7.499999672
    -1.736023704        11.025221028         7.499999672
     1.736019808        11.025221028         7.499999672
     5.208063319        11.025221028         7.499999672
     8.680107555        11.025221028         7.499999672
    12.152151067        11.025221028         7.499999672
    15.624194579        11.025221028         7.499999672
    -6.944089470        14.032099148         7.499999672
    -3.472045596        14.032099148         7.499999672
    -0.000002084        14.032099148         7.499999672
     3.472041427        14.032099148         7.499999672
     6.944085663        14.032099148         7.499999672
    10.416129175        14.032099148         7.499999672
    13.888172687        14.032099148         7.499999672
    -8.680112086        17.038978523         7.499999672
    -5.208068212        17.038978523         7.499999672
    -1.736024701        17.038978523         7.499999672
     1.736018811        17.038978523         7.499999672
     5.208063047        17.038978523         7.499999672
     8.680106558        17.038978523         7.499999672
    12.152150070        17.038978523         7.499999672
   -10.416133978        20.045856643         7.499999672
    -6.944090105        20.045856643         7.499999672
    -3.472046593        20.045856643         7.499999672
    -0.000003081        20.045856643         7.499999672
     3.472041155        20.045856643         7.499999672
     6.944084666        20.045856643         7.499999672
    10.416128178        20.045856643         7.499999672
     0.000000000         0.000000000        16.379306708
     3.038038254         0.000000000        16.379306708
     6.076076508         0.000000000        16.379306708
     9.114114761         0.000000000        16.379306708
    12.152153015         0.000000000        16.379306708
    15.190191269         0.000000000        16.379306708
    18.228229523         0.000000000        16.379306708
    21.266267776         0.000000000        16.379306708
    -1.519019246         2.631018512        16.379306708
     1.519019008         2.631018512        16.379306708
     4.557057261         2.631018512        16.379306708
     7.595095515         2.631018512        16.379306708
    10.633133769         2.631018512        16.379306708
    13.671172023         2.631018512        16.379306708
    16.709210277         2.631018512        16.379306708
    19.747248530         2.631018512        16.379306708
    -3.038038492         5.262037024        16.379306708
    -0.000000238         5.262037024        16.379306708
     3.038038015         5.262037024        16.379306708
     6.076076269         5.262037024        16.379306708
     9.114114523         5.262037024        16.379306708
    12.152152777         5.262037024        16.379306708
    15.190191031         5.262037024        16.379306708
    18.228229284         5.262037024        16.379306708
    -4.557057738         7.893055536        16.379306708
    -1.519019485         7.893055536        16.379306708
     1.519018769         7.893055536        16.379306708
     4.557057023         7.893055536        16.379306708
     7.595095277         7.893055536        16.379306708
    10.633133531         7.893055536        16.379306708
    13.671171784         7.893055536        16.379306708
    16.709210038         7.893055536        16.379306708
    -6.076076984        10.524074048        16.379306708
    -3.038038731        10.524074048        16.379306708
    -0.000000477        10.524074048        16.379306708
     3.038037777        10.524074048        16.379306708
     6.076076031        10.524074048        16.379306708
     9.114114285        10.524074048        16.379306708
    12.152152538        10.524074048        16.379306708
    15.190190792        10.524074048        16.379306708
    -7.595096231        13.155092560        16.379306708
    -4.557057977        13.155092560        16.379306708
    -1.519019723        13.155092560        16.379306708
     1.519018531        13.155092560        16.379306708
     4.557056785        13.155092560        16.379306708
     7.595095038        13.155092560        16.379306708
    10.633133292        13.155092560        16.379306708
    13.671171546        13.155092560        16.379306708
    -9.114115477        15.786111072        16.379306708
    -6.076077223        15.786111072        16.379306708
    -3.038038969        15.786111072        16.379306708
    -0.000000715        15.786111072        16.379306708
     3.038037539        15.786111072        16.379306708
     6.076075792        15.786111072        16.379306708
     9.114114046        15.786111072        16.379306708
    12.152152300        15.786111072        16.379306708
   -10.633134723        18.417129583        16.379306708
    -7.595096469        18.417129583        16.379306708
    -4.557058215        18.417129583        16.379306708
    -1.519019961        18.417129583        16.379306708
     1.519018292        18.417129583        16.379306708
     4.557056546        18.417129583        16.379306708
     7.595094800        18.417129583        16.379306708
    10.633133054        18.417129583        16.379306708
    -0.000001619         1.754013178        17.876283974
     3.038036726         1.754013178        17.876283974
     6.076074979         1.754013178        17.876283974
     9.114113233         1.754013178        17.876283974
    12.152151487         1.754013178        17.876283974
    15.190189741         1.754013178        17.876283974
    18.228227995         1.754013178        17.876283974
    21.266266248         1.754013178        17.876283974
    -1.519020865         4.385031690        17.876283974
     1.519017480         4.385031690        17.876283974
     4.557055733         4.385031690        17.876283974
     7.595093987         4.385031690        17.876283974
    10.633132241         4.385031690        17.876283974
    13.671170495         4.385031690        17.876283974
    16.709208748         4.385031690        17.876283974
    19.747247002         4.385031690        17.876283974
    -3.038040111         7.016050202        17.876283974
    -0.000001767         7.016050202        17.876283974
     3.038036487         7.016050202        17.876283974
     6.076074741         7.016050202        17.876283974
     9.114112995         7.016050202        17.876283974
    12.152151249         7.016050202        17.876283974
    15.190189502         7.016050202        17.876283974
    18.228227756         7.016050202        17.876283974
    -4.557059357         9.647068713        17.876283974
    -1.519021013         9.647068713        17.876283974
     1.519017241         9.647068713        17.876283974
     4.557055495         9.647068713        17.876283974
     7.595093749         9.647068713        17.876283974
    10.633132002         9.647068713        17.876283974
    13.671170256         9.647068713        17.876283974
    16.709208510         9.647068713        17.876283974
    -6.076078603        12.278087225        17.876283974
    -3.038040259        12.278087225        17.876283974
    -0.000002005        12.278087225        17.876283974
     3.038036249        12.278087225        17.876283974
     6.076074503        12.278087225        17.876283974
     9.114112756        12.278087225        17.876283974
    12.152151010        12.278087225        17.876283974
    15.190189264        12.278087225        17.876283974
    -7.595097849        14.909105737        17.876283974
    -4.557059505        14.909105737        17.876283974
    -1.519021251        14.909105737        17.876283974
     1.519017003        14.909105737        17.876283974
     4.557055257        14.909105737        17.876283974
     7.595093510        14.909105737        17.876283974
    10.633131764        14.909105737        17.876283974
    13.671170018        14.909105737        17.876283974
    -9.114117095        17.540124249        17.876283974
    -6.076078751        17.540124249        17.876283974
    -3.038040497        17.540124249        17.876283974
    -0.000002243        17.540124249        17.876283974
     3.038036010        17.540124249        17.876283974
     6.076074264        17.540124249        17.876283974
     9.114112518        17.540124249        17.876283974
    12.152150772        17.540124249        17.876283974
   -10.633136341        20.171142761        17.876283974
    -7.595097997        20.171142761        17.876283974
    -4.557059743        20.171142761        17.876283974
    -1.519021489        20.171142761        17.876283974
     1.519016764        20.171142761        17.876283974
     4.557055018        20.171142761        17.876283974
     7.595093272        20.171142761        17.876283974
    10.633131526        20.171142761        17.876283974
    -0.000001619         1.754013178        14.882329442
     3.038036726         1.754013178        14.882329442
     6.076074979         1.754013178        14.882329442
     9.114113233         1.754013178        14.882329442
    12.152151487         1.754013178        14.882329442
    15.190189741         1.754013178        14.882329442
    18.228227995         1.754013178        14.882329442
    21.266266248         1.754013178        14.882329442
    -1.519020865         4.385031690        14.882329442
     1.519017480         4.385031690        14.882329442
     4.557055733         4.385031690        14.882329442
     7.595093987         4.385031690        14.882329442
    10.633132241         4.385031690        14.882329442
    13.671170495         4.385031690        14.882329442
    16.709208748         4.385031690        14.882329442
    19.747247002         4.385031690        14.882329442
    -3.038040111         7.016050202        14.882329442
    -0.000001767         7.016050202        14.882329442
     3.038036487         7.016050202        14.882329442
     6.076074741         7.016050202        14.882329442
     9.114112995         7.016050202        14.882329442
    12.152151249         7.016050202        14.882329442
    15.190189502         7.016050202        14.882329442
    18.228227756         7.016050202        14.882329442
    -4.557059357         9.647068713        14.882329442
    -1.519021013         9.647068713        14.882329442
     1.519017241         9.647068713        14.882329442
     4.557055495         9.647068713        14.882329442
     7.595093749         9.647068713        14.882329442
    10.633132002         9.647068713        14.882329442
    13.671170256         9.647068713        14.882329442
    16.709208510         9.647068713        14.882329442
    -6.076078603        12.278087225        14.882329442
    -3.038040259        12.278087225        14.882329442
    -0.000002005        12.278087225        14.882329442
     3.038036249        12.278087225        14.882329442
     6.076074503        12.278087225        14.882329442
     9.114112756        12.278087225        14.882329442
    12.152151010        12.278087225        14.882329442
    15.190189264        12.278087225        14.882329442
    -7.595097849        14.909105737        14.882329442
    -4.557059505        14.909105737        14.882329442
    -1.519021251        14.909105737        14.882329442
     1.519017003        14.909105737        14.882329442
     4.557055257        14.909105737        14.882329442
     7.595093510        14.909105737        14.882329442
    10.633131764        14.909105737        14.882329442
    13.671170018        14.909105737        14.882329442
    -9.114117095        17.540124249        14.882329442
    -6.076078751        17.540124249        14.882329442
    -3.038040497        17.540124249        14.882329442
    -0.000002243        17.540124249        14.882329442
     3.038036010        17.540124249        14.882329442
     6.076074264        17.540124249        14.882329442
     9.114112518        17.540124249        14.882329442
    12.152150772        17.540124249        14.882329442
   -10.633136341        20.171142761        14.882329442
    -7.595097997        20.171142761        14.882329442
    -4.557059743        20.171142761        14.882329442
    -1.519021489        20.171142761        14.882329442
     1.519016764        20.171142761        14.882329442
     4.557055018        20.171142761        14.882329442
     7.595093272        20.171142761        14.882329442
    10.633131526        20.171142761        14.882329442
